Maximize
 0
Subject To
 epc_0!1: +9.246428629247646 y_1!1_2!1 -49.84871841864602 y_1!2_2!1 -61.19458193314769 y_1!3_2!1 -21.981942795021254 y_1!4_2!1 +14.468580210717136 y_1!1_2!2 +39.043563496591645 y_1!2_2!2 -62.16680594778601 y_1!3_2!2 +71.58858574284827 y_1!4_2!2 +35.07427590127327 y_1!1_2!3 +40.13309049366114 y_1!2_2!3 +77.41330135496756 y_1!3_2!3 +41.59085257520891 y_1!4_2!3 -46.44777075872612 y_1!1_2!4 +80.38634298446706 y_1!2_2!4 -59.833349085407896 y_1!3_2!4 +83.38753303124551 y_1!4_2!4 + lambda_0!1 - mu_0 = 0
 epc_0!2: +54.242734160953745 y_1!1_2!1 -68.52674100720715 y_1!2_2!1 -65.3918181353554 y_1!3_2!1 -67.32165402588366 y_1!4_2!1 -71.98453948982728 y_1!1_2!2 +22.630536347227917 y_1!2_2!2 +0.6799184154043729 y_1!3_2!2 -30.09179117901219 y_1!4_2!2 -10.472144055104792 y_1!1_2!3 +65.31542738904886 y_1!2_2!3 -85.22509234423752 y_1!3_2!3 +96.0386754266313 y_1!4_2!3 +53.74712323520566 y_1!1_2!4 -36.53180983761584 y_1!2_2!4 -46.71155745060209 y_1!3_2!4 -52.972452976014054 y_1!4_2!4 + lambda_0!2 - mu_0 = 0
 epc_0!3: -2.4744184721422897 y_1!1_2!1 +35.55491066776693 y_1!2_2!1 +38.54877647797551 y_1!3_2!1 -48.284694036926076 y_1!4_2!1 -94.80553799332134 y_1!1_2!2 +43.24420668692093 y_1!2_2!2 -54.10794228918196 y_1!3_2!2 -69.67374120808859 y_1!4_2!2 -72.69155510083309 y_1!1_2!3 +54.64771658970179 y_1!2_2!3 +55.283612618632475 y_1!3_2!3 +31.78350460775559 y_1!4_2!3 -7.932435496694438 y_1!1_2!4 +22.93239905810242 y_1!2_2!4 +28.452216876932766 y_1!3_2!4 -90.40588216425634 y_1!4_2!4 + lambda_0!3 - mu_0 = 0
 epc_0!4: -66.76028846633939 y_1!1_2!1 -64.69287787988547 y_1!2_2!1 +32.48211249377252 y_1!3_2!1 +14.295370689298977 y_1!4_2!1 +44.0214842078868 y_1!1_2!2 -27.472406435935156 y_1!2_2!2 -30.6826134038793 y_1!3_2!2 -52.648821099109135 y_1!4_2!2 +2.1682960575496963 y_1!1_2!3 +98.53311121988057 y_1!2_2!3 -80.72846206773019 y_1!3_2!3 -58.839979938620644 y_1!4_2!3 +21.67437271449593 y_1!1_2!4 +68.1012158973862 y_1!2_2!4 -83.04007667295528 y_1!3_2!4 -23.121534944369188 y_1!4_2!4 + lambda_0!4 - mu_0 = 0
 dc_0: x_0!1 + x_0!2 + x_0!3 + x_0!4 = 1
 bc_0!1: lambda_0!1 +297.9768853323201 x_0!1 <= 297.9768853323201
 bc_0!2: lambda_0!2 +297.9768853323201 x_0!2 <= 297.9768853323201
 bc_0!3: lambda_0!3 +297.9768853323201 x_0!3 <= 297.9768853323201
 bc_0!4: lambda_0!4 +297.9768853323201 x_0!4 <= 297.9768853323201
 sum_0!1: y_1!1_2!1 - x_1!1 - x_2!1 >= -1
 idk_0!1!1: y_1!1_2!1 - x_1!1 <= 0
 idk_0!1!2: y_1!1_2!1 - x_2!1 <= 0
 sum_0!2: y_1!2_2!1 - x_1!2 - x_2!1 >= -1
 idk_0!2!1: y_1!2_2!1 - x_1!2 <= 0
 idk_0!2!2: y_1!2_2!1 - x_2!1 <= 0
 sum_0!3: y_1!3_2!1 - x_1!3 - x_2!1 >= -1
 idk_0!3!1: y_1!3_2!1 - x_1!3 <= 0
 idk_0!3!2: y_1!3_2!1 - x_2!1 <= 0
 sum_0!4: y_1!4_2!1 - x_1!4 - x_2!1 >= -1
 idk_0!4!1: y_1!4_2!1 - x_1!4 <= 0
 idk_0!4!2: y_1!4_2!1 - x_2!1 <= 0
 sum_0!5: y_1!1_2!2 - x_1!1 - x_2!2 >= -1
 idk_0!5!1: y_1!1_2!2 - x_1!1 <= 0
 idk_0!5!2: y_1!1_2!2 - x_2!2 <= 0
 sum_0!6: y_1!2_2!2 - x_1!2 - x_2!2 >= -1
 idk_0!6!1: y_1!2_2!2 - x_1!2 <= 0
 idk_0!6!2: y_1!2_2!2 - x_2!2 <= 0
 sum_0!7: y_1!3_2!2 - x_1!3 - x_2!2 >= -1
 idk_0!7!1: y_1!3_2!2 - x_1!3 <= 0
 idk_0!7!2: y_1!3_2!2 - x_2!2 <= 0
 sum_0!8: y_1!4_2!2 - x_1!4 - x_2!2 >= -1
 idk_0!8!1: y_1!4_2!2 - x_1!4 <= 0
 idk_0!8!2: y_1!4_2!2 - x_2!2 <= 0
 sum_0!9: y_1!1_2!3 - x_1!1 - x_2!3 >= -1
 idk_0!9!1: y_1!1_2!3 - x_1!1 <= 0
 idk_0!9!2: y_1!1_2!3 - x_2!3 <= 0
 sum_0!10: y_1!2_2!3 - x_1!2 - x_2!3 >= -1
 idk_0!10!1: y_1!2_2!3 - x_1!2 <= 0
 idk_0!10!2: y_1!2_2!3 - x_2!3 <= 0
 sum_0!11: y_1!3_2!3 - x_1!3 - x_2!3 >= -1
 idk_0!11!1: y_1!3_2!3 - x_1!3 <= 0
 idk_0!11!2: y_1!3_2!3 - x_2!3 <= 0
 sum_0!12: y_1!4_2!3 - x_1!4 - x_2!3 >= -1
 idk_0!12!1: y_1!4_2!3 - x_1!4 <= 0
 idk_0!12!2: y_1!4_2!3 - x_2!3 <= 0
 sum_0!13: y_1!1_2!4 - x_1!1 - x_2!4 >= -1
 idk_0!13!1: y_1!1_2!4 - x_1!1 <= 0
 idk_0!13!2: y_1!1_2!4 - x_2!4 <= 0
 sum_0!14: y_1!2_2!4 - x_1!2 - x_2!4 >= -1
 idk_0!14!1: y_1!2_2!4 - x_1!2 <= 0
 idk_0!14!2: y_1!2_2!4 - x_2!4 <= 0
 sum_0!15: y_1!3_2!4 - x_1!3 - x_2!4 >= -1
 idk_0!15!1: y_1!3_2!4 - x_1!3 <= 0
 idk_0!15!2: y_1!3_2!4 - x_2!4 <= 0
 sum_0!16: y_1!4_2!4 - x_1!4 - x_2!4 >= -1
 idk_0!16!1: y_1!4_2!4 - x_1!4 <= 0
 idk_0!16!2: y_1!4_2!4 - x_2!4 <= 0
 epc_1!1: -43.741341958016264 y_0!1_2!1 +3.919867094122708 y_0!2_2!1 +72.61070224903571 y_0!3_2!1 -57.98862498502126 y_0!4_2!1 +48.32511982582423 y_0!1_2!2 +1.4816517367151079 y_0!2_2!2 -71.77431938353166 y_0!3_2!2 +53.523562984131274 y_0!4_2!2 +81.21136042456772 y_0!1_2!3 -92.92606722252488 y_0!2_2!3 -5.110543316787329 y_0!3_2!3 +76.34294192359101 y_0!4_2!3 -61.89501506135504 y_0!1_2!4 +52.81142832623152 y_0!2_2!4 +13.990912276421597 y_0!3_2!4 +87.09182958440925 y_0!4_2!4 + lambda_1!1 - mu_1 = 0
 epc_1!2: +21.122998657269846 y_0!1_2!1 +98.81602341027892 y_0!2_2!1 +95.17775342707185 y_0!3_2!1 -41.86812696919131 y_0!4_2!1 +41.64083100617509 y_0!1_2!2 +90.14142637905334 y_0!2_2!2 -20.465139987197972 y_0!3_2!2 +55.23738117370138 y_0!4_2!2 -28.92716047949591 y_0!1_2!3 -32.625684382847496 y_0!2_2!3 -3.9156646790458325 y_0!3_2!3 -84.66027837324705 y_0!4_2!3 -99.16086192204116 y_0!1_2!4 +50.82702496304344 y_0!2_2!4 +98.05531494119208 y_0!3_2!4 +77.61395306583913 y_0!4_2!4 + lambda_1!2 - mu_1 = 0
 epc_1!3: +98.2274550921056 y_0!1_2!1 +92.7987036481818 y_0!2_2!1 -5.864654142069355 y_0!3_2!1 -36.21455536844947 y_0!4_2!1 +16.52106441634548 y_0!1_2!2 -78.68445548557446 y_0!2_2!2 +47.17329114535747 y_0!3_2!2 +45.60966647180345 y_0!4_2!2 -61.6641711258606 y_0!1_2!3 +98.37182512489488 y_0!2_2!3 +80.3612589199416 y_0!3_2!3 +26.229643710370226 y_0!4_2!3 -50.819379336241965 y_0!1_2!4 +11.95253208554496 y_0!2_2!4 +39.16224403577445 y_0!3_2!4 +87.58673338366327 y_0!4_2!4 + lambda_1!3 - mu_1 = 0
 epc_1!4: +74.3631600206607 y_0!1_2!1 +76.62115661317625 y_0!2_2!1 +9.33154076258434 y_0!3_2!1 -37.92437491966485 y_0!4_2!1 +42.06677599673111 y_0!1_2!2 +87.59907895535059 y_0!2_2!2 -9.852655903167147 y_0!3_2!2 -77.59678366672117 y_0!4_2!2 +28.978495407372236 y_0!1_2!3 -94.22619992636577 y_0!2_2!3 +34.29660182138292 y_0!3_2!3 +31.42009479327342 y_0!4_2!3 -47.580131531800006 y_0!1_2!4 +28.204231172692744 y_0!2_2!4 +51.38587706285273 y_0!3_2!4 +78.43468355712037 y_0!4_2!4 + lambda_1!4 - mu_1 = 0
 dc_1: x_1!1 + x_1!2 + x_1!3 + x_1!4 = 1
 bc_1!1: lambda_1!1 +297.9768853323201 x_1!1 <= 297.9768853323201
 bc_1!2: lambda_1!2 +297.9768853323201 x_1!2 <= 297.9768853323201
 bc_1!3: lambda_1!3 +297.9768853323201 x_1!3 <= 297.9768853323201
 bc_1!4: lambda_1!4 +297.9768853323201 x_1!4 <= 297.9768853323201
 sum_1!1: y_0!1_2!1 - x_0!1 - x_2!1 >= -1
 idk_1!1!0: y_0!1_2!1 - x_0!1 <= 0
 idk_1!1!2: y_0!1_2!1 - x_2!1 <= 0
 sum_1!2: y_0!2_2!1 - x_0!2 - x_2!1 >= -1
 idk_1!2!0: y_0!2_2!1 - x_0!2 <= 0
 idk_1!2!2: y_0!2_2!1 - x_2!1 <= 0
 sum_1!3: y_0!3_2!1 - x_0!3 - x_2!1 >= -1
 idk_1!3!0: y_0!3_2!1 - x_0!3 <= 0
 idk_1!3!2: y_0!3_2!1 - x_2!1 <= 0
 sum_1!4: y_0!4_2!1 - x_0!4 - x_2!1 >= -1
 idk_1!4!0: y_0!4_2!1 - x_0!4 <= 0
 idk_1!4!2: y_0!4_2!1 - x_2!1 <= 0
 sum_1!5: y_0!1_2!2 - x_0!1 - x_2!2 >= -1
 idk_1!5!0: y_0!1_2!2 - x_0!1 <= 0
 idk_1!5!2: y_0!1_2!2 - x_2!2 <= 0
 sum_1!6: y_0!2_2!2 - x_0!2 - x_2!2 >= -1
 idk_1!6!0: y_0!2_2!2 - x_0!2 <= 0
 idk_1!6!2: y_0!2_2!2 - x_2!2 <= 0
 sum_1!7: y_0!3_2!2 - x_0!3 - x_2!2 >= -1
 idk_1!7!0: y_0!3_2!2 - x_0!3 <= 0
 idk_1!7!2: y_0!3_2!2 - x_2!2 <= 0
 sum_1!8: y_0!4_2!2 - x_0!4 - x_2!2 >= -1
 idk_1!8!0: y_0!4_2!2 - x_0!4 <= 0
 idk_1!8!2: y_0!4_2!2 - x_2!2 <= 0
 sum_1!9: y_0!1_2!3 - x_0!1 - x_2!3 >= -1
 idk_1!9!0: y_0!1_2!3 - x_0!1 <= 0
 idk_1!9!2: y_0!1_2!3 - x_2!3 <= 0
 sum_1!10: y_0!2_2!3 - x_0!2 - x_2!3 >= -1
 idk_1!10!0: y_0!2_2!3 - x_0!2 <= 0
 idk_1!10!2: y_0!2_2!3 - x_2!3 <= 0
 sum_1!11: y_0!3_2!3 - x_0!3 - x_2!3 >= -1
 idk_1!11!0: y_0!3_2!3 - x_0!3 <= 0
 idk_1!11!2: y_0!3_2!3 - x_2!3 <= 0
 sum_1!12: y_0!4_2!3 - x_0!4 - x_2!3 >= -1
 idk_1!12!0: y_0!4_2!3 - x_0!4 <= 0
 idk_1!12!2: y_0!4_2!3 - x_2!3 <= 0
 sum_1!13: y_0!1_2!4 - x_0!1 - x_2!4 >= -1
 idk_1!13!0: y_0!1_2!4 - x_0!1 <= 0
 idk_1!13!2: y_0!1_2!4 - x_2!4 <= 0
 sum_1!14: y_0!2_2!4 - x_0!2 - x_2!4 >= -1
 idk_1!14!0: y_0!2_2!4 - x_0!2 <= 0
 idk_1!14!2: y_0!2_2!4 - x_2!4 <= 0
 sum_1!15: y_0!3_2!4 - x_0!3 - x_2!4 >= -1
 idk_1!15!0: y_0!3_2!4 - x_0!3 <= 0
 idk_1!15!2: y_0!3_2!4 - x_2!4 <= 0
 sum_1!16: y_0!4_2!4 - x_0!4 - x_2!4 >= -1
 idk_1!16!0: y_0!4_2!4 - x_0!4 <= 0
 idk_1!16!2: y_0!4_2!4 - x_2!4 <= 0
 epc_2!1: +45.91720240919227 y_0!1_1!1 -25.26083922572191 y_0!2_1!1 -76.57489526132221 y_0!3_1!1 +38.65491506740625 y_0!4_1!1 +66.4324940406832 y_0!1_1!2 +87.46149229544332 y_0!2_1!2 +16.78692959053913 y_0!3_1!2 +10.533325325134186 y_0!4_1!2 -6.791349989558597 y_0!1_1!3 -33.258716008397 y_0!2_1!3 +45.848526021932685 y_0!3_1!3 -28.39491335749298 y_0!4_1!3 +77.6597917551332 y_0!1_1!4 -76.28711406603873 y_0!2_1!4 -45.34890231701465 y_0!3_1!4 +75.21348922925299 y_0!4_1!4 + lambda_2!1 - mu_2 = 0
 epc_2!2: -43.559248357296745 y_0!1_1!1 -8.968714940723459 y_0!2_1!1 +22.43310131439229 y_0!3_1!1 +34.45998932839316 y_0!4_1!1 -44.29255441335154 y_0!1_1!2 +64.71701001702272 y_0!2_1!2 +44.043514130317874 y_0!3_1!2 -78.9820866045299 y_0!4_1!2 -57.52479553509242 y_0!1_1!3 -81.73158171611632 y_0!2_1!3 +90.81183955801242 y_0!3_1!3 +96.45214160398729 y_0!4_1!3 +78.51331682060112 y_0!1_1!4 +88.47360621431918 y_0!2_1!4 +43.34822247814759 y_0!3_1!4 +23.231061469130083 y_0!4_1!4 + lambda_2!2 - mu_2 = 0
 epc_2!3: +33.97181342403732 y_0!1_1!1 +20.049837308558054 y_0!2_1!1 -26.120108289170105 y_0!3_1!1 +99.68737373208262 y_0!4_1!1 +38.44435369345746 y_0!1_1!2 -87.31674083187212 y_0!2_1!2 +60.61294557130543 y_0!3_1!2 +29.004683509017042 y_0!4_1!2 -13.571125760346135 y_0!1_1!3 +39.23739960049207 y_0!2_1!3 +40.24128759976469 y_0!3_1!3 -33.12296767253132 y_0!4_1!3 +72.15552926452031 y_0!1_1!4 +97.84397124962746 y_0!2_1!4 +47.107381537438016 y_0!3_1!4 -4.191003442402177 y_0!4_1!4 + lambda_2!3 - mu_2 = 0
 epc_2!4: -94.49085019302032 y_0!1_1!1 +23.28494485204567 y_0!2_1!1 +48.652242501936996 y_0!3_1!1 -53.90591307061303 y_0!4_1!1 -43.71863569800587 y_0!1_1!2 +14.520125385105828 y_0!2_1!2 -33.325031571712586 y_0!3_1!2 +24.329692268362678 y_0!4_1!2 +88.24531387279904 y_0!1_1!3 -64.59015773330792 y_0!2_1!3 -27.445173716303415 y_0!3_1!3 -80.10304167726406 y_0!4_1!3 +77.5536605607711 y_0!1_1!4 -85.37247152218468 y_0!2_1!4 -38.02813249298542 y_0!3_1!4 +38.15447100780631 y_0!4_1!4 + lambda_2!4 - mu_2 = 0
 dc_2: x_2!1 + x_2!2 + x_2!3 + x_2!4 = 1
 bc_2!1: lambda_2!1 +297.9768853323201 x_2!1 <= 297.9768853323201
 bc_2!2: lambda_2!2 +297.9768853323201 x_2!2 <= 297.9768853323201
 bc_2!3: lambda_2!3 +297.9768853323201 x_2!3 <= 297.9768853323201
 bc_2!4: lambda_2!4 +297.9768853323201 x_2!4 <= 297.9768853323201
 sum_2!1: y_0!1_1!1 - x_0!1 - x_1!1 >= -1
 idk_2!1!0: y_0!1_1!1 - x_0!1 <= 0
 idk_2!1!1: y_0!1_1!1 - x_1!1 <= 0
 sum_2!2: y_0!2_1!1 - x_0!2 - x_1!1 >= -1
 idk_2!2!0: y_0!2_1!1 - x_0!2 <= 0
 idk_2!2!1: y_0!2_1!1 - x_1!1 <= 0
 sum_2!3: y_0!3_1!1 - x_0!3 - x_1!1 >= -1
 idk_2!3!0: y_0!3_1!1 - x_0!3 <= 0
 idk_2!3!1: y_0!3_1!1 - x_1!1 <= 0
 sum_2!4: y_0!4_1!1 - x_0!4 - x_1!1 >= -1
 idk_2!4!0: y_0!4_1!1 - x_0!4 <= 0
 idk_2!4!1: y_0!4_1!1 - x_1!1 <= 0
 sum_2!5: y_0!1_1!2 - x_0!1 - x_1!2 >= -1
 idk_2!5!0: y_0!1_1!2 - x_0!1 <= 0
 idk_2!5!1: y_0!1_1!2 - x_1!2 <= 0
 sum_2!6: y_0!2_1!2 - x_0!2 - x_1!2 >= -1
 idk_2!6!0: y_0!2_1!2 - x_0!2 <= 0
 idk_2!6!1: y_0!2_1!2 - x_1!2 <= 0
 sum_2!7: y_0!3_1!2 - x_0!3 - x_1!2 >= -1
 idk_2!7!0: y_0!3_1!2 - x_0!3 <= 0
 idk_2!7!1: y_0!3_1!2 - x_1!2 <= 0
 sum_2!8: y_0!4_1!2 - x_0!4 - x_1!2 >= -1
 idk_2!8!0: y_0!4_1!2 - x_0!4 <= 0
 idk_2!8!1: y_0!4_1!2 - x_1!2 <= 0
 sum_2!9: y_0!1_1!3 - x_0!1 - x_1!3 >= -1
 idk_2!9!0: y_0!1_1!3 - x_0!1 <= 0
 idk_2!9!1: y_0!1_1!3 - x_1!3 <= 0
 sum_2!10: y_0!2_1!3 - x_0!2 - x_1!3 >= -1
 idk_2!10!0: y_0!2_1!3 - x_0!2 <= 0
 idk_2!10!1: y_0!2_1!3 - x_1!3 <= 0
 sum_2!11: y_0!3_1!3 - x_0!3 - x_1!3 >= -1
 idk_2!11!0: y_0!3_1!3 - x_0!3 <= 0
 idk_2!11!1: y_0!3_1!3 - x_1!3 <= 0
 sum_2!12: y_0!4_1!3 - x_0!4 - x_1!3 >= -1
 idk_2!12!0: y_0!4_1!3 - x_0!4 <= 0
 idk_2!12!1: y_0!4_1!3 - x_1!3 <= 0
 sum_2!13: y_0!1_1!4 - x_0!1 - x_1!4 >= -1
 idk_2!13!0: y_0!1_1!4 - x_0!1 <= 0
 idk_2!13!1: y_0!1_1!4 - x_1!4 <= 0
 sum_2!14: y_0!2_1!4 - x_0!2 - x_1!4 >= -1
 idk_2!14!0: y_0!2_1!4 - x_0!2 <= 0
 idk_2!14!1: y_0!2_1!4 - x_1!4 <= 0
 sum_2!15: y_0!3_1!4 - x_0!3 - x_1!4 >= -1
 idk_2!15!0: y_0!3_1!4 - x_0!3 <= 0
 idk_2!15!1: y_0!3_1!4 - x_1!4 <= 0
 sum_2!16: y_0!4_1!4 - x_0!4 - x_1!4 >= -1
 idk_2!16!0: y_0!4_1!4 - x_0!4 <= 0
 idk_2!16!1: y_0!4_1!4 - x_1!4 <= 0
Bounds
 mu_0 free
 mu_1 free
 mu_2 free
Binary
 x_0!1 x_0!2 x_0!3 x_0!4 x_1!1 x_1!2 x_1!3 x_1!4 x_2!1 x_2!2 x_2!3 x_2!4
End
